(set-logic QF_S)
(declare-fun var0 () String)
(assert (str.in.re var0 (re.++ (re.+ (re.* (str.to.re "000"))) (re.++ (re.+ (re.union (str.to.re "11") (str.to.re "222"))) (re.++ (re.+ (re.* (str.to.re "333"))) (re.++ (re.* (re.* (str.to.re "44"))) (re.++ (re.* (re.* (str.to.re "55"))) (re.++ (re.* (re.union (str.to.re "66") (str.to.re "77"))) (re.++ (re.+ (re.+ (str.to.re "888"))) (re.++ (re.* (re.+ (str.to.re "999"))) (re.++ (re.union (re.union (str.to.re "a") (str.to.re "bbb")) (re.union (str.to.re "cc") (str.to.re "ddd"))) (re.++ (re.union (re.* (str.to.re "e")) (re.* (str.to.re "fff"))) (re.++ (re.* (re.* (str.to.re "gg"))) (re.++ (re.+ (re.union (str.to.re "h") (str.to.re "i"))) (re.++ (re.+ (re.* (str.to.re "jjj"))) (re.++ (re.* (re.union (str.to.re "kkk") (str.to.re "ll"))) (re.++ (re.* (re.union (str.to.re "mm") (str.to.re "n"))) (re.++ (re.union (re.+ (str.to.re "ooo")) (re.+ (str.to.re "ppp"))) (re.++ (re.+ (re.union (str.to.re "q") (str.to.re "rr"))) (re.++ (re.+ (re.+ (str.to.re "s"))) (re.++ (re.* (re.+ (str.to.re "ttt"))) (re.++ (re.* (re.union (str.to.re "uu") (str.to.re "vv"))) (re.++ (re.* (re.union (str.to.re "www") (str.to.re "xx"))) (re.++ (re.+ (re.* (str.to.re "yy"))) (re.++ (re.+ (re.union (str.to.re "zzz") (str.to.re "AA"))) (re.++ (re.union (re.union (str.to.re "BBB") (str.to.re "CC")) (re.union (str.to.re "D") (str.to.re "EEE"))) (re.++ (re.* (re.* (str.to.re "F"))) (re.++ (re.* (re.* (str.to.re "G"))) (re.++ (re.+ (re.* (str.to.re "HHH"))) (re.++ (re.union (re.* (str.to.re "II")) (re.* (str.to.re "JJJ"))) (re.++ (re.+ (re.* (str.to.re "KK"))) (re.++ (re.union (re.* (str.to.re "LLL")) (re.* (str.to.re "MMM"))) (re.++ (re.+ (re.union (str.to.re "NNN") (str.to.re "O"))) (re.++ (re.+ (re.+ (str.to.re "P"))) (re.++ (re.union (re.union (str.to.re "Q") (str.to.re "RR")) (re.union (str.to.re "S") (str.to.re "T"))) (re.++ (re.+ (re.+ (str.to.re "UUU"))) (re.++ (re.+ (re.+ (str.to.re "VVV"))) (re.++ (re.* (re.union (str.to.re "W") (str.to.re "X"))) (re.++ (re.* (re.union (str.to.re "YYY") (str.to.re "ZZZ"))) (re.++ (re.+ (re.+ (str.to.re "!"))) (re.++ (re.union (re.* (str.to.re """""""")) (re.* (str.to.re "#"))) (re.++ (re.* (re.union (str.to.re "$$") (str.to.re "%%"))) (re.++ (re.union (re.union (str.to.re "&&") (str.to.re "'")) (re.union (str.to.re "(") (str.to.re ")"))) (re.++ (re.union (re.* (str.to.re "*")) (re.* (str.to.re "++"))) (re.++ (re.* (re.+ (str.to.re ",,,"))) (re.++ (re.+ (re.* (str.to.re "--"))) (re.++ (re.union (re.+ (str.to.re "..")) (re.+ (str.to.re "//"))) (re.++ (re.* (re.+ (str.to.re ":"))) (re.++ (re.union (re.+ (str.to.re ";;")) (re.+ (str.to.re "<"))) (re.++ (re.+ (re.* (str.to.re "="))) (re.++ (re.+ (re.+ (str.to.re ">"))) (re.++ (re.* (re.+ (str.to.re "??"))) (re.++ (re.+ (re.union (str.to.re "@@") (str.to.re "["))) (re.++ (re.union (re.+ (str.to.re "\\\\")) (re.+ (str.to.re "]]]"))) (re.++ (re.+ (re.+ (str.to.re "^^^"))) (re.++ (re.union (re.union (str.to.re "___") (str.to.re "``")) (re.union (str.to.re "{{") (str.to.re "|||"))) (re.++ (re.union (re.union (str.to.re "}}}") (str.to.re "~")) (re.union (str.to.re "00") (str.to.re "111"))) (re.++ (re.+ (re.+ (str.to.re "2"))) (re.++ (re.* (re.* (str.to.re "33"))) (re.++ (re.* (re.+ (str.to.re "44"))) (re.++ (re.union (re.union (str.to.re "5") (str.to.re "66")) (re.union (str.to.re "77") (str.to.re "88"))) (re.++ (re.+ (re.union (str.to.re "9") (str.to.re "a"))) (re.++ (re.+ (re.+ (str.to.re "bbb"))) (re.++ (re.* (re.+ (str.to.re "c"))) (re.++ (re.+ (re.+ (str.to.re "d"))) (re.++ (re.+ (re.* (str.to.re "eee"))) (re.++ (re.union (re.+ (str.to.re "ff")) (re.+ (str.to.re "g"))) (re.* (re.+ (str.to.re "hh"))))))))))))))))))))))))))))))))))))))))))))))))))))))))))))))))))))))
(assert (not (str.in.re var0 (re.++ (re.* (re.* (str.to.re "000"))) (re.++ (re.+ (re.union (str.to.re "1") (str.to.re "22"))) (re.++ (re.union (re.+ (str.to.re "333")) (re.+ (str.to.re "4"))) (re.++ (re.+ (re.* (str.to.re "5"))) (re.++ (re.+ (re.* (str.to.re "666"))) (re.++ (re.+ (re.+ (str.to.re "7"))) (re.++ (re.+ (re.* (str.to.re "888"))) (re.++ (re.+ (re.union (str.to.re "9") (str.to.re "aaa"))) (re.++ (re.* (re.union (str.to.re "b") (str.to.re "c"))) (re.++ (re.+ (re.+ (str.to.re "ddd"))) (re.++ (re.* (re.+ (str.to.re "ee"))) (re.++ (re.+ (re.union (str.to.re "f") (str.to.re "g"))) (re.++ (re.+ (re.union (str.to.re "h") (str.to.re "ii"))) (re.++ (re.+ (re.* (str.to.re "jjj"))) (re.++ (re.+ (re.union (str.to.re "k") (str.to.re "ll"))) (re.++ (re.* (re.+ (str.to.re "mmm"))) (re.++ (re.+ (re.* (str.to.re "nn"))) (re.++ (re.union (re.* (str.to.re "o")) (re.* (str.to.re "p"))) (re.++ (re.+ (re.union (str.to.re "qqq") (str.to.re "rrr"))) (re.++ (re.union (re.+ (str.to.re "sss")) (re.+ (str.to.re "ttt"))) (re.++ (re.union (re.union (str.to.re "u") (str.to.re "vv")) (re.union (str.to.re "w") (str.to.re "x"))) (re.++ (re.union (re.union (str.to.re "yy") (str.to.re "zz")) (re.union (str.to.re "A") (str.to.re "BBB"))) (re.++ (re.union (re.* (str.to.re "CC")) (re.* (str.to.re "D"))) (re.++ (re.* (re.+ (str.to.re "E"))) (re.++ (re.union (re.+ (str.to.re "FF")) (re.+ (str.to.re "GG"))) (re.++ (re.union (re.union (str.to.re "HH") (str.to.re "I")) (re.union (str.to.re "JJJ") (str.to.re "KKK"))) (re.++ (re.union (re.union (str.to.re "LL") (str.to.re "M")) (re.union (str.to.re "N") (str.to.re "OOO"))) (re.++ (re.* (re.union (str.to.re "PP") (str.to.re "Q"))) (re.++ (re.union (re.+ (str.to.re "RRR")) (re.+ (str.to.re "SS"))) (re.++ (re.+ (re.* (str.to.re "T"))) (re.++ (re.union (re.* (str.to.re "UUU")) (re.* (str.to.re "VVV"))) (re.++ (re.* (re.union (str.to.re "WW") (str.to.re "X"))) (re.++ (re.+ (re.+ (str.to.re "YYY"))) (re.++ (re.* (re.+ (str.to.re "Z"))) (re.++ (re.* (re.+ (str.to.re "!!"))) (re.++ (re.+ (re.* (str.to.re """"))) (re.++ (re.union (re.* (str.to.re "#")) (re.* (str.to.re "$$"))) (re.++ (re.* (re.+ (str.to.re "%%"))) (re.++ (re.+ (re.+ (str.to.re "&"))) (re.++ (re.+ (re.union (str.to.re "'''") (str.to.re "("))) (re.++ (re.* (re.union (str.to.re ")") (str.to.re "*"))) (re.++ (re.union (re.+ (str.to.re "+++")) (re.+ (str.to.re ",,"))) (re.++ (re.union (re.* (str.to.re "--")) (re.* (str.to.re ".."))) (re.++ (re.union (re.+ (str.to.re "/")) (re.+ (str.to.re ":"))) (re.++ (re.* (re.union (str.to.re ";") (str.to.re "<<<"))) (re.++ (re.+ (re.union (str.to.re "=") (str.to.re ">>>"))) (re.++ (re.union (re.* (str.to.re "??")) (re.* (str.to.re "@@@"))) (re.++ (re.+ (re.* (str.to.re "[[["))) (re.++ (re.+ (re.* (str.to.re "\\\\\\"))) (re.++ (re.+ (re.+ (str.to.re "]]"))) (re.++ (re.+ (re.+ (str.to.re "^^^"))) (re.++ (re.union (re.+ (str.to.re "__")) (re.+ (str.to.re "```"))) (re.++ (re.union (re.union (str.to.re "{{") (str.to.re "|||")) (re.union (str.to.re "}}") (str.to.re "~~"))) (re.++ (re.+ (re.union (str.to.re "000") (str.to.re "11"))) (re.++ (re.* (re.+ (str.to.re "222"))) (re.++ (re.union (re.+ (str.to.re "33")) (re.+ (str.to.re "444"))) (re.++ (re.+ (re.union (str.to.re "555") (str.to.re "666"))) (re.++ (re.+ (re.* (str.to.re "777"))) (re.++ (re.union (re.* (str.to.re "888")) (re.* (str.to.re "999"))) (re.++ (re.union (re.union (str.to.re "aa") (str.to.re "bb")) (re.union (str.to.re "cc") (str.to.re "ddd"))) (re.++ (re.* (re.* (str.to.re "eee"))) (re.++ (re.* (re.+ (str.to.re "fff"))) (re.++ (re.+ (re.+ (str.to.re "gg"))) (re.++ (re.union (re.union (str.to.re "hhh") (str.to.re "ii")) (re.union (str.to.re "jjj") (str.to.re "kkk"))) (re.++ (re.+ (re.+ (str.to.re "ll"))) (re.* (re.* (str.to.re "mm")))))))))))))))))))))))))))))))))))))))))))))))))))))))))))))))))))))))
(check-sat)